# 35337
param k := 6;
param n := 60;
param s := 1;
set E :=  (0,6) (0,24) (0,35) (0,46) (1,36) (1,43) (2,22) (2,59) (3,5) (3,38) (4,52) (5,46) (6,48) (7,8) (8,20) (8,50) (9,13) (9,16) (9,25) (9,44) (10,34) (10,53) (10,55) (11,46) (12,39) (12,49) (13,26) (13,40) (14,15) (15,52) (17,22) (17,37) (18,22) (18,32) (18,46) (18,56) (19,23) (21,41) (22,31) (22,57) (23,48) (24,58) (27,45) (28,32) (29,46) (30,38) (31,44) (32,50) (33,51) (34,54) (38,56) (41,43) (41,48) (42,48) (45,52) (46,49) (47,57) (49,52) (51,58) (54,59);